9454
1 0 1 1 0 1 1 1 0 1 
3 6 3 0 9 9 5 5 3 7 7 0 9 9 9 9 9 2 5 3 0 0 0 0 0 0 7 3 3 7 7 7 3 3 3 5 9 2 0 6 0 9 9 2 5 5 5 5 5 3 3 5 6 0 0 0 6 6 2 2 2 7 7 7 3 3 6 3 7 7 3 6 6 6 6 3 3 3 3 3 3 5 2 2 2 2 6 7 2 7 2 2 2 2 2 2 2 2 2 2 
